c t mc
c file mc2022_track1_022.cnf
p cnf 148 784
83 -35 10 -51 54 0
-97 -132 -114 -41 -23 0
94 131 -139 -21 68 0
-102 -123 -133 95 20 0
93 -100 45 -64 -110 0
-94 -131 -139 21 -68 0
-135 -92 87 -69 122 0
-120 -50 65 77 -38 0
120 -50 -65 77 -38 0
143 72 -107 83 35 0
-42 -146 -25 -47 -86 0
-16 -85 109 -104 118 0
-94 131 -139 -21 -68 0
-116 -112 -8 42 -146 0
-11 88 33 102 123 0
32 56 111 -52 -147 0
-77 38 -141 -113 -103 0
-70 73 -84 99 137 0
125 89 121 3 -55 0
31 -129 14 -16 -85 0
93 100 -45 64 110 0
-95 -20 76 115 -27 0
-78 13 66 119 1 0
77 -38 141 113 -103 0
-104 118 -136 94 131 0
40 -7 -37 -32 -56 0
134 -128 101 -11 -88 0
-97 132 -114 -41 23 0
97 132 114 -41 23 0
31 129 14 16 -85 0
3 -55 61 -116 -112 0
-99 137 53 -90 -80 0
81 -60 124 120 50 0
-148 -34 -108 -97 -132 0
94 131 -139 21 -68 0
134 -128 -101 -11 88 0
94 -131 139 21 -68 0
-125 89 -121 -3 55 0
-69 122 71 98 -127 0
81 -60 -124 -120 50 0
104 -118 -136 94 131 0
-120 -50 -65 77 38 0
64 110 -138 6 40 0
119 1 63 125 89 0
-148 -34 -108 97 132 0
-93 -100 45 -64 110 0
-2 44 96 29 -130 0
-9 -62 -26 106 -145 0
97 132 114 41 -23 0
5 24 -59 -2 -44 0
-93 -100 45 64 -110 0
-39 -30 57 93 -100 0
5 -24 -59 2 -44 0
98 127 117 143 -72 0
-106 145 -67 105 -49 0
113 103 43 70 73 0
78 -13 -66 119 -1 0
81 60 -124 -120 -50 0
-143 -72 -107 -83 -35 0
31 129 -14 16 85 0
98 127 -117 143 72 0
125 89 -121 -3 -55 0
-116 -112 -8 -42 146 0
102 -123 133 -95 -20 0
116 -112 -8 42 146 0
29 -130 -82 -148 -34 0
-5 24 59 2 44 0
-120 50 -65 -77 38 0
16 -85 -109 -104 118 0
-64 -110 -138 6 40 0
-95 20 -76 -115 27 0
-9 62 -26 106 145 0
39 -30 57 93 100 0
2 -44 96 29 -130 0
-83 35 -10 51 54 0
148 34 -108 97 132 0
-4 28 15 -135 -92 0
-81 60 124 -120 -50 0
-48 -19 -142 4 -28 0
115 -27 75 9 62 0
-120 50 65 77 38 0
119 -1 63 -125 89 0
148 -34 -108 -97 132 0
-77 38 141 -113 103 0
-125 89 -121 3 -55 0
36 -22 -79 134 -128 0
135 92 -87 -69 -122 0
51 54 12 31 -129 0
21 68 -140 -81 -60 0
104 -118 136 -94 131 0
52 -147 -126 -48 -19 0
-70 -73 -84 99 -137 0
134 -128 -101 11 -88 0
78 13 66 119 -1 0
99 137 -53 90 80 0
-69 -122 71 98 127 0
-134 -128 101 11 -88 0
-104 118 -136 -94 -131 0
113 -103 -43 70 73 0
-90 80 -46 -5 24 0
77 38 -141 -113 103 0
77 -38 -141 113 103 0
21 -68 -140 81 -60 0
21 -68 -140 -81 60 0
32 -56 -111 -52 -147 0
69 122 -71 98 -127 0
-104 -118 136 -94 -131 0
-41 -23 91 78 13 0
-95 -20 -76 -115 -27 0
148 -34 -108 97 -132 0
42 -146 25 47 86 0
148 34 108 97 -132 0
-64 110 -138 6 -40 0
148 -34 108 -97 -132 0
-32 56 -111 -52 -147 0
11 88 33 102 -123 0
-90 80 46 -5 -24 0
-36 22 -79 134 -128 0
2 44 -96 -29 130 0
97 132 -114 -41 -23 0
47 86 74 36 -22 0
-78 -13 66 119 -1 0
52 147 -126 -48 19 0
-5 -24 59 2 -44 0
-95 20 76 -115 -27 0
-98 127 117 143 72 0
-90 -80 -46 -5 -24 0
36 22 -79 134 128 0
-29 130 82 -148 34 0
98 -127 -117 143 -72 0
-81 -60 -124 120 50 0
-77 -38 141 113 103 0
36 -22 79 134 128 0
115 -27 -75 -9 62 0
-51 54 12 31 129 0
-134 -128 -101 -11 -88 0
-4 -28 -15 -135 -92 0
-119 -1 -63 125 -89 0
-143 72 -107 83 -35 0
-94 131 139 21 -68 0
3 -55 -61 116 -112 0
134 128 -101 -11 -88 0
-47 86 74 36 22 0
-41 -23 91 -78 -13 0
148 -34 108 97 132 0
-95 20 76 115 27 0
-134 -128 -101 11 88 0
99 -137 53 90 80 0
-102 -123 133 95 -20 0
-125 -89 121 -3 55 0
-106 -145 -67 -105 -49 0
-3 55 -61 -116 112 0
-58 17 18 39 30 0
-97 -132 114 41 -23 0
-58 17 18 -39 -30 0
135 -92 87 69 122 0
-94 -131 -139 -21 68 0
102 -123 133 95 20 0
-32 56 111 52 -147 0
2 44 96 29 130 0
-90 -80 46 5 -24 0
95 20 -76 115 27 0
-21 68 140 81 60 0
-58 -17 18 39 -30 0
99 -137 53 -90 -80 0
81 60 124 -120 50 0
-69 122 -71 -98 -127 0
90 -80 -46 5 -24 0
-99 -137 -53 -90 -80 0
98 -127 117 -143 -72 0
-42 -146 -25 47 86 0
102 123 -133 95 20 0
-94 131 -139 21 68 0
-102 123 133 95 20 0
47 86 -74 36 22 0
36 22 -79 -134 -128 0
64 110 138 6 -40 0
48 19 -142 4 -28 0
134 128 -101 11 88 0
-78 13 66 -119 -1 0
105 49 144 -58 17 0
-3 55 -61 116 -112 0
-31 129 14 16 85 0
69 -122 71 -98 127 0
-99 -137 -53 90 80 0
83 35 -10 -51 54 0
-125 -89 121 3 -55 0
58 17 18 -39 30 0
4 -28 -15 -135 92 0
42 -146 -25 47 -86 0
-47 86 -74 -36 22 0
106 145 -67 105 49 0
-52 147 126 48 -19 0
-113 -103 -43 -70 73 0
78 -13 66 119 1 0
-143 -72 107 83 -35 0
106 -145 -67 -105 49 0
-42 -146 25 -47 86 0
3 55 -61 -116 -112 0
-113 103 43 -70 73 0
125 -89 -121 -3 55 0
-2 -44 96 29 130 0
-120 -50 -65 -77 -38 0
-78 13 -66 -119 1 0
77 38 141 113 103 0
5 -24 59 -2 -44 0
-51 54 -12 -31 129 0
-115 -27 75 9 -62 0
-29 -130 -82 148 -34 0
-77 -38 -141 113 -103 0
58 17 -18 39 30 0
-40 7 37 -32 56 0
-40 -7 37 32 56 0
-4 -28 -15 135 92 0
-135 92 -87 -69 122 0
70 -73 84 -99 137 0
-42 146 -25 47 -86 0
-52 147 -126 48 19 0
-16 85 -109 -104 118 0
41 23 91 -78 -13 0
-32 -56 111 52 147 0
-5 -24 -59 2 44 0
-4 28 -15 135 -92 0
4 -28 15 135 92 0
120 -50 65 -77 -38 0
105 49 -144 58 17 0
119 -1 -63 -125 -89 0
64 -110 138 6 40 0
-21 -68 140 81 -60 0
115 27 75 9 -62 0
-52 -147 126 48 19 0
104 -118 136 94 -131 0
-115 -27 75 -9 62 0
5 24 -59 2 44 0
41 -23 91 78 -13 0
-134 128 101 11 88 0
102 123 133 95 -20 0
-115 27 -75 -9 62 0
-64 -110 138 6 -40 0
-94 -131 139 21 68 0
-48 -19 142 4 28 0
105 -49 144 58 17 0
-31 -129 -14 -16 -85 0
40 -7 37 -32 56 0
70 -73 -84 -99 -137 0
48 -19 -142 4 28 0
143 72 107 -83 35 0
-148 34 -108 97 -132 0
58 17 18 39 -30 0
51 -54 12 31 129 0
-93 100 45 -64 -110 0
-99 -137 53 -90 80 0
-51 -54 -12 -31 -129 0
41 23 -91 -78 13 0
106 -145 67 105 49 0
99 137 53 -90 80 0
116 112 -8 42 -146 0
3 55 61 -116 112 0
-106 145 -67 -105 49 0
-2 -44 -96 -29 130 0
52 147 126 -48 -19 0
-29 -130 82 -148 -34 0
-120 50 -65 77 -38 0
135 -92 -87 69 -122 0
-113 -103 43 -70 -73 0
-42 146 -25 -47 86 0
-4 28 15 135 92 0
-83 35 10 -51 54 0
21 -68 140 81 60 0
115 -27 -75 9 -62 0
42 146 25 47 -86 0
-83 -35 -10 51 -54 0
11 88 -33 -102 -123 0
32 -56 111 -52 147 0
-32 -56 -111 52 -147 0
-32 -56 -111 -52 147 0
-70 73 -84 -99 -137 0
-64 110 -138 -6 40 0
98 127 -117 -143 -72 0
125 89 121 -3 55 0
21 -68 140 -81 -60 0
-5 24 -59 2 -44 0
-93 100 45 64 110 0
48 -19 142 -4 28 0
48 19 142 4 28 0
-105 49 -144 -58 17 0
-29 130 -82 -148 -34 0
-11 88 -33 -102 123 0
95 20 -76 -115 -27 0
4 28 15 135 -92 0
-48 19 -142 -4 -28 0
52 147 126 48 19 0
70 -73 -84 99 137 0
-11 -88 33 102 -123 0
-32 -56 111 -52 -147 0
-5 24 59 -2 -44 0
-51 -54 -12 31 129 0
90 80 -46 5 24 0
42 146 -25 47 86 0
-47 86 -74 36 -22 0
97 -132 114 -41 -23 0
41 23 -91 78 -13 0
51 -54 -12 31 -129 0
11 -88 -33 102 -123 0
77 38 -141 113 -103 0
-119 1 -63 125 89 0
-104 -118 -136 94 -131 0
102 123 -133 -95 -20 0
83 -35 10 51 -54 0
104 -118 -136 -94 -131 0
5 24 59 -2 44 0
-113 -103 43 70 73 0
-105 49 -144 58 -17 0
-77 38 -141 113 103 0
148 34 -108 -97 -132 0
98 127 117 -143 72 0
-9 62 -26 -106 -145 0
-21 -68 -140 81 60 0
-29 130 -82 148 34 0
58 -17 18 39 30 0
-2 -44 96 -29 -130 0
120 50 -65 77 38 0
40 -7 37 32 -56 0
115 27 -75 -9 -62 0
-77 -38 141 -113 -103 0
3 -55 61 116 112 0
-134 -128 101 -11 88 0
-97 -132 -114 41 23 0
-102 -123 -133 -95 -20 0
-16 85 109 104 118 0
116 -112 8 -42 146 0
143 -72 107 -83 -35 0
106 -145 -67 105 -49 0
5 -24 59 2 44 0
-40 -7 -37 32 -56 0
104 118 -136 94 -131 0
83 -35 -10 -51 -54 0
-98 -127 -117 -143 -72 0
-9 62 26 -106 145 0
9 62 -26 106 -145 0
-21 -68 -140 -81 -60 0
-58 17 -18 -39 30 0
-2 44 -96 -29 -130 0
-81 -60 124 -120 50 0
2 44 -96 29 -130 0
93 100 -45 -64 -110 0
-115 -27 -75 9 62 0
-83 35 10 51 -54 0
-11 -88 -33 -102 -123 0
119 1 -63 -125 89 0
116 -112 -8 -42 -146 0
-31 129 -14 16 -85 0
90 -80 46 5 24 0
125 -89 -121 3 -55 0
116 112 8 -42 -146 0
-9 -62 -26 -106 145 0
36 22 79 134 -128 0
-99 137 -53 90 -80 0
69 -122 71 98 -127 0
-83 -35 -10 -51 54 0
-36 -22 79 134 -128 0
51 54 -12 -31 -129 0
48 19 -142 -4 28 0
-97 132 114 -41 -23 0
41 -23 -91 -78 -13 0
32 56 -111 -52 147 0
116 -112 8 42 -146 0
51 -54 -12 -31 129 0
-98 -127 117 -143 72 0
-90 -80 -46 5 24 0
-120 -50 65 -77 38 0
-81 -60 124 120 -50 0
40 7 37 32 56 0
47 86 -74 -36 -22 0
-31 -129 -14 16 85 0
115 27 -75 9 62 0
-105 -49 -144 58 17 0
105 49 -144 -58 -17 0
-105 -49 -144 -58 -17 0
-116 112 -8 -42 -146 0
-69 122 -71 98 127 0
99 137 53 90 -80 0
39 30 -57 93 100 0
148 34 108 -97 132 0
120 50 65 -77 38 0
-39 -30 -57 93 100 0
16 -85 -109 104 -118 0
119 -1 -63 125 89 0
-29 130 82 148 -34 0
-70 -73 84 99 137 0
4 28 -15 -135 -92 0
36 -22 79 -134 -128 0
94 131 139 -21 -68 0
11 -88 33 -102 -123 0
-40 -7 37 -32 -56 0
-98 127 117 -143 -72 0
-70 73 84 -99 137 0
90 -80 46 -5 -24 0
-11 88 33 -102 -123 0
95 20 76 115 -27 0
-116 112 -8 42 146 0
98 -127 -117 -143 72 0
58 -17 18 -39 -30 0
-48 -19 142 -4 -28 0
-47 -86 74 -36 22 0
40 7 37 -32 -56 0
31 -129 -14 -16 85 0
48 -19 142 4 -28 0
-31 -129 14 -16 85 0
104 118 -136 -94 131 0
-148 34 108 97 132 0
93 -100 -45 64 -110 0
-93 100 -45 64 -110 0
29 130 82 148 34 0
-143 -72 107 -83 35 0
36 22 79 -134 128 0
31 -129 14 16 85 0
-102 123 133 -95 -20 0
106 145 67 105 -49 0
-31 129 14 -16 -85 0
-105 49 144 -58 -17 0
39 -30 -57 -93 100 0
16 85 -109 104 118 0
-78 -13 -66 -119 -1 0
-48 -19 -142 -4 28 0
-98 127 -117 143 -72 0
-52 147 -126 -48 -19 0
-102 -123 133 -95 20 0
31 129 14 -16 85 0
-119 1 -63 -125 -89 0
-5 -24 -59 -2 -44 0
29 -130 -82 148 34 0
21 68 140 -81 60 0
69 122 -71 -98 127 0
-95 -20 -76 115 27 0
4 28 -15 135 92 0
-116 -112 8 -42 -146 0
77 -38 -141 -113 -103 0
97 -132 -114 -41 23 0
29 130 -82 -148 34 0
9 62 26 -106 -145 0
-39 -30 -57 -93 -100 0
-47 -86 -74 36 22 0
-125 -89 -121 3 55 0
-83 35 -10 -51 -54 0
-113 -103 -43 70 -73 0
9 -62 26 106 -145 0
-70 73 84 99 -137 0
119 -1 63 125 -89 0
90 80 46 5 -24 0
11 88 33 -102 123 0
-143 72 107 -83 -35 0
-98 -127 117 143 -72 0
102 123 133 -95 20 0
58 -17 -18 39 -30 0
-97 132 114 41 23 0
-16 -85 -109 -104 -118 0
104 118 136 -94 -131 0
42 -146 -25 -47 86 0
52 -147 126 -48 19 0
64 110 -138 -6 -40 0
-99 137 -53 -90 80 0
58 17 -18 -39 -30 0
125 -89 121 -3 -55 0
-32 56 -111 52 147 0
97 132 -114 41 23 0
94 -131 139 -21 68 0
-104 -118 136 94 131 0
32 -56 111 52 -147 0
-104 118 136 -94 131 0
-69 -122 -71 98 -127 0
-83 -35 10 -51 -54 0
41 23 91 78 13 0
-81 60 -124 120 -50 0
-39 30 57 93 100 0
-81 60 -124 -120 50 0
95 -20 76 -115 -27 0
2 -44 -96 -29 -130 0
83 35 10 51 54 0
-52 -147 -126 48 -19 0
36 -22 -79 -134 128 0
104 118 136 94 131 0
-16 -85 109 104 -118 0
-16 -85 -109 104 118 0
-102 123 -133 95 -20 0
-148 34 108 -97 -132 0
-5 24 -59 -2 44 0
-21 68 140 -81 -60 0
64 110 138 -6 40 0
95 -20 -76 -115 27 0
-104 118 136 94 -131 0
-58 -17 18 -39 30 0
-104 -118 -136 -94 131 0
-52 -147 126 -48 -19 0
-78 -13 -66 119 1 0
29 130 82 -148 -34 0
-134 128 -101 11 -88 0
-3 -55 -61 -116 -112 0
78 13 66 -119 1 0
-64 110 138 6 40 0
-99 137 53 90 80 0
-11 88 -33 102 -123 0
-40 7 37 32 -56 0
-29 -130 82 148 34 0
113 -103 43 70 -73 0
-115 27 -75 9 -62 0
-41 -23 -91 78 -13 0
-36 -22 79 -134 128 0
-105 49 144 58 17 0
-105 -49 144 -58 17 0
40 7 -37 -32 56 0
-106 -145 67 -105 49 0
-90 80 -46 5 -24 0
3 55 -61 116 112 0
-119 1 63 125 -89 0
105 -49 -144 58 -17 0
-64 -110 -138 -6 -40 0
-58 17 -18 39 -30 0
70 73 84 99 137 0
-143 72 107 83 35 0
-106 -145 67 105 -49 0
-113 103 -43 70 73 0
135 -92 -87 -69 122 0
11 -88 -33 -102 123 0
3 -55 -61 -116 112 0
-116 112 8 42 -146 0
120 50 -65 -77 -38 0
-58 -17 -18 39 30 0
-95 -20 76 -115 27 0
4 -28 15 -135 -92 0
-51 -54 12 31 -129 0
102 -123 -133 95 -20 0
77 38 141 -113 -103 0
42 146 -25 -47 -86 0
-69 -122 71 -98 -127 0
94 131 139 21 68 0
9 -62 26 -106 145 0
16 -85 109 -104 -118 0
39 -30 57 -93 -100 0
5 -24 -59 -2 44 0
31 129 -14 -16 -85 0
-77 -38 -141 -113 103 0
-42 146 25 -47 -86 0
-16 85 -109 104 -118 0
94 -131 -139 -21 -68 0
116 112 8 42 146 0
-69 -122 -71 -98 127 0
102 -123 -133 -95 20 0
106 145 -67 -105 -49 0
-48 19 -142 4 28 0
-98 127 -117 -143 72 0
-115 -27 -75 -9 -62 0
-9 62 26 106 -145 0
-36 22 79 134 128 0
-77 38 141 113 -103 0
-148 -34 108 97 -132 0
78 13 -66 -119 -1 0
93 100 45 -64 110 0
2 -44 -96 29 130 0
-78 13 -66 119 -1 0
-69 122 71 -98 127 0
-113 103 -43 -70 -73 0
-3 55 61 116 112 0
-143 -72 -107 83 35 0
-47 -86 -74 -36 -22 0
39 30 57 93 -100 0
-4 -28 15 135 -92 0
125 89 -121 3 55 0
-135 -92 -87 69 122 0
70 73 -84 -99 137 0
39 -30 -57 93 -100 0
134 128 101 -11 88 0
-135 -92 87 69 -122 0
81 -60 -124 120 -50 0
-119 -1 63 -125 -89 0
105 49 144 58 -17 0
143 -72 107 83 35 0
9 62 26 106 145 0
-36 -22 -79 -134 -128 0
32 -56 -111 52 147 0
94 -131 -139 21 68 0
32 56 -111 52 -147 0
29 -130 82 148 -34 0
90 80 -46 -5 -24 0
105 -49 144 -58 -17 0
134 -128 101 11 88 0
16 85 109 -104 118 0
93 100 45 64 -110 0
70 73 84 -99 -137 0
93 -100 -45 -64 110 0
-3 -55 61 -116 112 0
-39 -30 57 -93 100 0
-90 -80 46 -5 24 0
-40 7 -37 -32 -56 0
-39 30 57 -93 -100 0
-119 1 63 -125 89 0
-52 -147 -126 -48 19 0
95 20 76 -115 27 0
51 54 -12 31 129 0
-40 7 -37 32 56 0
-120 50 65 -77 -38 0
90 80 46 -5 24 0
106 145 67 -105 49 0
-125 89 121 3 55 0
16 -85 109 104 118 0
69 -122 -71 -98 -127 0
-39 30 -57 -93 100 0
52 -147 126 48 -19 0
-125 89 121 -3 -55 0
-106 145 67 -105 -49 0
-97 132 -114 41 -23 0
16 85 109 104 -118 0
99 137 -53 -90 -80 0
-93 -100 -45 64 110 0
-11 -88 -33 102 123 0
-41 23 -91 78 13 0
-4 28 -15 -135 92 0
-98 -127 -117 143 72 0
-97 -132 114 -41 23 0
64 -110 -138 6 -40 0
-115 27 75 -9 -62 0
-31 -129 14 16 -85 0
-81 -60 -124 -120 -50 0
52 -147 -126 48 19 0
-116 -112 8 42 146 0
-4 -28 15 -135 92 0
70 73 -84 99 -137 0
-115 27 75 9 62 0
-41 23 -91 -78 -13 0
40 -7 -37 32 56 0
77 -38 141 -113 103 0
-64 -110 138 -6 40 0
125 -89 121 3 55 0
9 -62 -26 106 145 0
81 -60 124 -120 -50 0
-47 -86 74 36 -22 0
48 -19 -142 -4 -28 0
115 -27 75 -9 -62 0
135 -92 87 -69 -122 0
-16 85 109 -104 -118 0
29 -130 82 -148 34 0
-83 -35 10 51 54 0
32 56 111 52 147 0
135 92 87 69 -122 0
-51 54 12 -31 -129 0
47 -86 -74 -36 22 0
21 68 140 81 -60 0
-143 72 -107 -83 35 0
-81 60 124 120 50 0
70 -73 84 99 -137 0
95 -20 -76 115 -27 0
120 -50 65 77 38 0
81 60 124 120 -50 0
47 86 74 -36 22 0
-70 -73 -84 -99 137 0
-36 -22 -79 134 128 0
-119 -1 63 125 89 0
47 -86 -74 36 -22 0
-32 56 111 -52 147 0
-2 -44 -96 29 -130 0
-9 -62 26 -106 -145 0
41 -23 91 -78 13 0
90 -80 -46 -5 24 0
98 -127 117 143 72 0
69 -122 -71 98 127 0
120 50 65 77 -38 0
106 -145 67 -105 -49 0
-106 -145 -67 105 49 0
-5 -24 59 -2 44 0
113 103 -43 -70 73 0
47 -86 74 -36 -22 0
-148 34 -108 -97 132 0
69 122 71 -98 -127 0
93 -100 45 64 110 0
-135 -92 -87 -69 -122 0
-47 86 74 -36 -22 0
78 -13 66 -119 -1 0
-3 -55 61 116 -112 0
9 62 -26 -106 145 0
-48 19 142 4 -28 0
134 128 101 11 -88 0
143 72 107 83 -35 0
-2 44 -96 29 130 0
143 -72 -107 83 -35 0
4 28 15 -135 92 0
-51 54 -12 31 -129 0
-134 128 101 -11 -88 0
-70 -73 84 -99 -137 0
11 -88 33 102 123 0
135 92 -87 69 122 0
-21 68 -140 81 -60 0
-135 92 -87 69 -122 0
-135 92 87 69 122 0
-41 -23 -91 -78 13 0
-93 -100 -45 -64 -110 0
-106 145 67 105 49 0
83 35 -10 51 -54 0
51 54 12 -31 129 0
81 60 -124 120 50 0
-93 100 -45 -64 110 0
2 -44 96 -29 130 0
58 -17 -18 -39 30 0
-36 22 -79 -134 128 0
47 -86 74 36 22 0
-21 -68 140 -81 60 0
3 55 61 116 -112 0
143 -72 -107 -83 35 0
97 -132 -114 41 -23 0
51 -54 12 -31 -129 0
-48 19 142 -4 28 0
-135 92 87 -69 -122 0
-40 -7 -37 -32 56 0
-90 80 46 5 24 0
78 13 -66 119 1 0
4 -28 -15 135 -92 0
83 -35 -10 51 54 0
135 92 87 -69 122 0
-2 44 96 -29 130 0
-42 146 25 47 86 0
-39 30 -57 93 -100 0
-119 -1 -63 -125 89 0
-78 -13 66 -119 1 0
-148 -34 108 -97 132 0
-116 112 8 -42 146 0
9 -62 -26 -106 -145 0
48 19 142 -4 -28 0
-94 -131 139 -21 -68 0
-3 55 61 -116 -112 0
-64 110 138 -6 -40 0
119 1 63 -125 -89 0
42 -146 25 -47 -86 0
120 -50 -65 -77 38 0
69 122 71 98 127 0
-9 -62 26 106 145 0
99 -137 -53 -90 80 0
-3 -55 -61 116 112 0
-95 20 -76 115 -27 0
40 7 -37 32 -56 0
95 -20 76 115 27 0
52 147 -126 48 -19 0
-105 -49 144 58 -17 0
-125 -89 -121 -3 -55 0
42 146 25 -47 86 0
16 85 -109 -104 -118 0
-41 23 91 -78 13 0
39 30 57 -93 100 0
-11 -88 33 -102 123 0
-29 -130 -82 -148 34 0
119 1 -63 125 -89 0
-113 103 43 70 -73 0
-42 -146 25 47 -86 0
41 -23 -91 78 13 0
-41 23 91 78 -13 0
11 88 -33 102 123 0
-134 128 -101 -11 88 0
97 -132 114 41 23 0
143 72 -107 -83 -35 0
-31 129 -14 -16 85 0
-102 123 -133 -95 20 0
-36 22 79 -134 -128 0
113 103 -43 70 -73 0
29 130 -82 148 -34 0
113 -103 43 -70 73 0
116 112 -8 -42 146 0
83 35 10 -51 -54 0
78 -13 -66 -119 1 0
105 -49 -144 -58 17 0
113 -103 -43 -70 -73 0
2 44 96 -29 -130 0
21 68 -140 81 60 0
64 -110 138 -6 -40 0
-99 -137 53 90 -80 0
99 -137 -53 90 -80 0
113 103 43 -70 -73 0
39 30 -57 -93 -100 0
31 -129 -14 16 -85 0
-94 131 139 -21 68 0
-52 147 126 -48 19 0
115 27 75 -9 62 0
-21 68 -140 -81 60 0
-51 -54 12 -31 129 0
-58 -17 -18 -39 -30 0
5 24 59 2 -44 0
64 -110 -138 -6 40 0
